p cnf 175 1683
1 2 3 4 5 0
6 7 8 9 10 0
11 12 13 14 15 0
16 17 18 19 20 0
21 22 23 24 25 0
26 27 28 29 30 0
31 32 33 34 35 0
36 37 38 39 40 0
41 42 43 44 45 0
46 47 48 49 50 0
51 52 53 54 55 0
56 57 58 59 60 0
61 62 63 64 65 0
66 67 68 69 70 0
71 72 73 74 75 0
76 77 78 79 80 0
81 82 83 84 85 0
86 87 88 89 90 0
91 92 93 94 95 0
96 97 98 99 100 0
101 102 103 104 105 0
106 107 108 109 110 0
111 112 113 114 115 0
116 117 118 119 120 0
121 122 123 124 125 0
126 127 128 129 130 0
131 132 133 134 135 0
136 137 138 139 140 0
141 142 143 144 145 0
146 147 148 149 150 0
151 152 153 154 155 0
156 157 158 159 160 0
161 162 163 164 165 0
166 167 168 169 170 0
171 172 173 174 175 0
-1 -2 0
-1 -3 0
-1 -4 0
-1 -5 0
-2 -3 0
-2 -4 0
-2 -5 0
-3 -4 0
-3 -5 0
-4 -5 0
-6 -7 0
-6 -8 0
-6 -9 0
-6 -10 0
-7 -8 0
-7 -9 0
-7 -10 0
-8 -9 0
-8 -10 0
-9 -10 0
-11 -12 0
-11 -13 0
-11 -14 0
-11 -15 0
-12 -13 0
-12 -14 0
-12 -15 0
-13 -14 0
-13 -15 0
-14 -15 0
-16 -17 0
-16 -18 0
-16 -19 0
-16 -20 0
-17 -18 0
-17 -19 0
-17 -20 0
-18 -19 0
-18 -20 0
-19 -20 0
-21 -22 0
-21 -23 0
-21 -24 0
-21 -25 0
-22 -23 0
-22 -24 0
-22 -25 0
-23 -24 0
-23 -25 0
-24 -25 0
-26 -27 0
-26 -28 0
-26 -29 0
-26 -30 0
-27 -28 0
-27 -29 0
-27 -30 0
-28 -29 0
-28 -30 0
-29 -30 0
-31 -32 0
-31 -33 0
-31 -34 0
-31 -35 0
-32 -33 0
-32 -34 0
-32 -35 0
-33 -34 0
-33 -35 0
-34 -35 0
-36 -37 0
-36 -38 0
-36 -39 0
-36 -40 0
-37 -38 0
-37 -39 0
-37 -40 0
-38 -39 0
-38 -40 0
-39 -40 0
-41 -42 0
-41 -43 0
-41 -44 0
-41 -45 0
-42 -43 0
-42 -44 0
-42 -45 0
-43 -44 0
-43 -45 0
-44 -45 0
-46 -47 0
-46 -48 0
-46 -49 0
-46 -50 0
-47 -48 0
-47 -49 0
-47 -50 0
-48 -49 0
-48 -50 0
-49 -50 0
-51 -52 0
-51 -53 0
-51 -54 0
-51 -55 0
-52 -53 0
-52 -54 0
-52 -55 0
-53 -54 0
-53 -55 0
-54 -55 0
-56 -57 0
-56 -58 0
-56 -59 0
-56 -60 0
-57 -58 0
-57 -59 0
-57 -60 0
-58 -59 0
-58 -60 0
-59 -60 0
-61 -62 0
-61 -63 0
-61 -64 0
-61 -65 0
-62 -63 0
-62 -64 0
-62 -65 0
-63 -64 0
-63 -65 0
-64 -65 0
-66 -67 0
-66 -68 0
-66 -69 0
-66 -70 0
-67 -68 0
-67 -69 0
-67 -70 0
-68 -69 0
-68 -70 0
-69 -70 0
-71 -72 0
-71 -73 0
-71 -74 0
-71 -75 0
-72 -73 0
-72 -74 0
-72 -75 0
-73 -74 0
-73 -75 0
-74 -75 0
-76 -77 0
-76 -78 0
-76 -79 0
-76 -80 0
-77 -78 0
-77 -79 0
-77 -80 0
-78 -79 0
-78 -80 0
-79 -80 0
-81 -82 0
-81 -83 0
-81 -84 0
-81 -85 0
-82 -83 0
-82 -84 0
-82 -85 0
-83 -84 0
-83 -85 0
-84 -85 0
-86 -87 0
-86 -88 0
-86 -89 0
-86 -90 0
-87 -88 0
-87 -89 0
-87 -90 0
-88 -89 0
-88 -90 0
-89 -90 0
-91 -92 0
-91 -93 0
-91 -94 0
-91 -95 0
-92 -93 0
-92 -94 0
-92 -95 0
-93 -94 0
-93 -95 0
-94 -95 0
-96 -97 0
-96 -98 0
-96 -99 0
-96 -100 0
-97 -98 0
-97 -99 0
-97 -100 0
-98 -99 0
-98 -100 0
-99 -100 0
-101 -102 0
-101 -103 0
-101 -104 0
-101 -105 0
-102 -103 0
-102 -104 0
-102 -105 0
-103 -104 0
-103 -105 0
-104 -105 0
-106 -107 0
-106 -108 0
-106 -109 0
-106 -110 0
-107 -108 0
-107 -109 0
-107 -110 0
-108 -109 0
-108 -110 0
-109 -110 0
-111 -112 0
-111 -113 0
-111 -114 0
-111 -115 0
-112 -113 0
-112 -114 0
-112 -115 0
-113 -114 0
-113 -115 0
-114 -115 0
-116 -117 0
-116 -118 0
-116 -119 0
-116 -120 0
-117 -118 0
-117 -119 0
-117 -120 0
-118 -119 0
-118 -120 0
-119 -120 0
-121 -122 0
-121 -123 0
-121 -124 0
-121 -125 0
-122 -123 0
-122 -124 0
-122 -125 0
-123 -124 0
-123 -125 0
-124 -125 0
-126 -127 0
-126 -128 0
-126 -129 0
-126 -130 0
-127 -128 0
-127 -129 0
-127 -130 0
-128 -129 0
-128 -130 0
-129 -130 0
-131 -132 0
-131 -133 0
-131 -134 0
-131 -135 0
-132 -133 0
-132 -134 0
-132 -135 0
-133 -134 0
-133 -135 0
-134 -135 0
-136 -137 0
-136 -138 0
-136 -139 0
-136 -140 0
-137 -138 0
-137 -139 0
-137 -140 0
-138 -139 0
-138 -140 0
-139 -140 0
-141 -142 0
-141 -143 0
-141 -144 0
-141 -145 0
-142 -143 0
-142 -144 0
-142 -145 0
-143 -144 0
-143 -145 0
-144 -145 0
-146 -147 0
-146 -148 0
-146 -149 0
-146 -150 0
-147 -148 0
-147 -149 0
-147 -150 0
-148 -149 0
-148 -150 0
-149 -150 0
-151 -152 0
-151 -153 0
-151 -154 0
-151 -155 0
-152 -153 0
-152 -154 0
-152 -155 0
-153 -154 0
-153 -155 0
-154 -155 0
-156 -157 0
-156 -158 0
-156 -159 0
-156 -160 0
-157 -158 0
-157 -159 0
-157 -160 0
-158 -159 0
-158 -160 0
-159 -160 0
-161 -162 0
-161 -163 0
-161 -164 0
-161 -165 0
-162 -163 0
-162 -164 0
-162 -165 0
-163 -164 0
-163 -165 0
-164 -165 0
-166 -167 0
-166 -168 0
-166 -169 0
-166 -170 0
-167 -168 0
-167 -169 0
-167 -170 0
-168 -169 0
-168 -170 0
-169 -170 0
-171 -172 0
-171 -173 0
-171 -174 0
-171 -175 0
-172 -173 0
-172 -174 0
-172 -175 0
-173 -174 0
-173 -175 0
-174 -175 0
-4 -23 0
-2 -21 0
-1 -24 0
-5 -23 0
-3 -25 0
-3 -22 0
-1 -25 0
-5 -25 0
-2 -25 0
-3 -23 0
-4 -25 0
-4 -24 0
-3 -24 0
-3 -21 0
-2 -24 0
-2 -22 0
-4 -21 0
-5 -22 0
-4 -22 0
-1 -23 0
-2 -23 0
-5 -24 0
-4 -57 0
-5 -59 0
-4 -58 0
-3 -57 0
-4 -59 0
-1 -59 0
-5 -56 0
-5 -57 0
-4 -56 0
-3 -59 0
-5 -58 0
-2 -57 0
-3 -56 0
-1 -60 0
-3 -60 0
-1 -57 0
-5 -60 0
-1 -56 0
-2 -60 0
-3 -58 0
-1 -58 0
-2 -59 0
-5 -65 0
-1 -62 0
-5 -63 0
-1 -64 0
-1 -61 0
-3 -61 0
-1 -63 0
-2 -64 0
-2 -61 0
-3 -64 0
-4 -62 0
-4 -65 0
-5 -61 0
-2 -62 0
-4 -64 0
-3 -62 0
-3 -65 0
-5 -64 0
-5 -62 0
-2 -63 0
-2 -65 0
-4 -61 0
-4 -79 0
-2 -79 0
-5 -79 0
-3 -79 0
-2 -80 0
-5 -77 0
-1 -77 0
-4 -77 0
-1 -78 0
-5 -78 0
-5 -80 0
-3 -80 0
-1 -80 0
-1 -76 0
-5 -76 0
-2 -76 0
-2 -78 0
-3 -78 0
-4 -78 0
-1 -79 0
-3 -76 0
-2 -77 0
-4 -159 0
-1 -160 0
-4 -160 0
-1 -157 0
-2 -156 0
-1 -158 0
-3 -159 0
-5 -156 0
-4 -157 0
-2 -158 0
-4 -156 0
-2 -157 0
-1 -159 0
-5 -157 0
-3 -160 0
-4 -158 0
-1 -156 0
-2 -160 0
-5 -160 0
-2 -159 0
-5 -159 0
-3 -158 0
-10 -35 0
-9 -32 0
-8 -35 0
-6 -34 0
-9 -34 0
-6 -35 0
-7 -35 0
-9 -35 0
-9 -31 0
-10 -33 0
-7 -31 0
-10 -34 0
-6 -31 0
-7 -34 0
-10 -32 0
-6 -32 0
-8 -33 0
-8 -34 0
-8 -31 0
-8 -32 0
-10 -31 0
-7 -32 0
-8 -89 0
-10 -90 0
-9 -87 0
-6 -86 0
-6 -89 0
-8 -87 0
-7 -88 0
-7 -90 0
-9 -86 0
-10 -87 0
-9 -90 0
-8 -90 0
-9 -89 0
-8 -88 0
-6 -90 0
-7 -89 0
-9 -88 0
-6 -87 0
-7 -86 0
-10 -86 0
-8 -86 0
-6 -88 0
-9 -145 0
-6 -145 0
-9 -142 0
-10 -144 0
-7 -142 0
-8 -142 0
-10 -142 0
-10 -141 0
-7 -145 0
-9 -141 0
-6 -142 0
-10 -145 0
-9 -143 0
-6 -144 0
-6 -141 0
-8 -143 0
-7 -141 0
-7 -144 0
-8 -145 0
-8 -141 0
-7 -143 0
-6 -143 0
-10 -161 0
-7 -162 0
-7 -163 0
-6 -164 0
-7 -164 0
-8 -162 0
-9 -165 0
-9 -163 0
-6 -163 0
-7 -161 0
-6 -161 0
-9 -164 0
-6 -162 0
-10 -163 0
-6 -165 0
-9 -162 0
-9 -161 0
-8 -165 0
-10 -164 0
-7 -165 0
-8 -161 0
-10 -162 0
-14 -31 0
-14 -33 0
-11 -34 0
-13 -35 0
-13 -33 0
-12 -31 0
-15 -33 0
-12 -32 0
-12 -35 0
-15 -35 0
-11 -31 0
-15 -34 0
-15 -31 0
-12 -34 0
-14 -32 0
-13 -31 0
-13 -32 0
-12 -33 0
-14 -35 0
-14 -34 0
-15 -32 0
-11 -32 0
-12 -45 0
-14 -41 0
-15 -45 0
-12 -41 0
-11 -44 0
-13 -44 0
-13 -43 0
-11 -43 0
-13 -42 0
-15 -42 0
-15 -44 0
-14 -45 0
-11 -42 0
-12 -42 0
-12 -43 0
-11 -41 0
-13 -45 0
-12 -44 0
-14 -44 0
-15 -43 0
-14 -42 0
-13 -41 0
-12 -145 0
-14 -143 0
-15 -141 0
-11 -145 0
-15 -144 0
-15 -142 0
-14 -145 0
-12 -142 0
-11 -143 0
-11 -144 0
-11 -141 0
-11 -142 0
-12 -141 0
-12 -143 0
-14 -142 0
-15 -145 0
-13 -144 0
-12 -144 0
-13 -145 0
-13 -143 0
-13 -142 0
-14 -144 0
-18 -133 0
-17 -134 0
-16 -135 0
-19 -133 0
-20 -131 0
-17 -133 0
-16 -132 0
-17 -132 0
-17 -131 0
-18 -134 0
-19 -132 0
-19 -134 0
-20 -133 0
-17 -135 0
-20 -132 0
-16 -133 0
-18 -135 0
-20 -134 0
-16 -134 0
-20 -135 0
-19 -135 0
-16 -131 0
-19 -169 0
-20 -166 0
-20 -170 0
-17 -167 0
-19 -168 0
-19 -166 0
-16 -168 0
-20 -168 0
-19 -167 0
-18 -166 0
-16 -170 0
-19 -170 0
-17 -168 0
-16 -169 0
-17 -170 0
-18 -167 0
-16 -166 0
-20 -169 0
-17 -169 0
-20 -167 0
-18 -170 0
-18 -169 0
-21 -51 0
-25 -53 0
-24 -54 0
-22 -53 0
-21 -55 0
-24 -53 0
-23 -52 0
-25 -52 0
-25 -55 0
-25 -54 0
-22 -55 0
-22 -52 0
-21 -53 0
-24 -51 0
-22 -51 0
-25 -51 0
-24 -55 0
-21 -52 0
-21 -54 0
-23 -55 0
-22 -54 0
-23 -53 0
-23 -127 0
-25 -127 0
-24 -129 0
-23 -126 0
-22 -126 0
-25 -130 0
-21 -128 0
-24 -127 0
-23 -128 0
-24 -126 0
-22 -130 0
-23 -129 0
-22 -129 0
-25 -128 0
-24 -128 0
-24 -130 0
-25 -126 0
-22 -127 0
-25 -129 0
-23 -130 0
-21 -130 0
-22 -128 0
-28 -59 0
-28 -58 0
-29 -58 0
-30 -56 0
-30 -59 0
-26 -60 0
-30 -57 0
-28 -57 0
-28 -60 0
-27 -58 0
-29 -57 0
-27 -59 0
-27 -57 0
-26 -56 0
-26 -58 0
-26 -57 0
-28 -56 0
-30 -60 0
-29 -59 0
-27 -60 0
-27 -56 0
-29 -56 0
-30 -79 0
-26 -79 0
-28 -77 0
-29 -79 0
-26 -80 0
-29 -77 0
-28 -78 0
-30 -77 0
-27 -78 0
-30 -76 0
-27 -80 0
-26 -78 0
-26 -76 0
-27 -77 0
-27 -79 0
-30 -80 0
-28 -80 0
-28 -76 0
-30 -78 0
-27 -76 0
-26 -77 0
-29 -76 0
-29 -112 0
-30 -111 0
-26 -111 0
-27 -112 0
-28 -115 0
-29 -114 0
-30 -112 0
-29 -115 0
-30 -113 0
-29 -113 0
-27 -113 0
-27 -115 0
-30 -115 0
-27 -114 0
-28 -114 0
-28 -111 0
-28 -113 0
-26 -114 0
-30 -114 0
-27 -111 0
-28 -112 0
-29 -111 0
-35 -74 0
-31 -72 0
-32 -75 0
-32 -72 0
-34 -75 0
-34 -72 0
-35 -71 0
-33 -73 0
-33 -72 0
-32 -74 0
-35 -72 0
-31 -71 0
-33 -75 0
-31 -75 0
-31 -74 0
-35 -73 0
-33 -71 0
-34 -71 0
-34 -74 0
-33 -74 0
-35 -75 0
-34 -73 0
-31 -104 0
-34 -103 0
-33 -104 0
-34 -102 0
-33 -105 0
-32 -103 0
-34 -104 0
-32 -105 0
-35 -105 0
-35 -102 0
-35 -103 0
-34 -105 0
-31 -101 0
-33 -102 0
-31 -102 0
-32 -102 0
-35 -104 0
-31 -103 0
-32 -101 0
-33 -101 0
-34 -101 0
-31 -105 0
-31 -130 0
-31 -128 0
-33 -129 0
-35 -130 0
-34 -127 0
-32 -127 0
-33 -130 0
-31 -129 0
-35 -128 0
-32 -130 0
-35 -129 0
-33 -126 0
-34 -128 0
-35 -127 0
-33 -127 0
-34 -130 0
-32 -129 0
-34 -126 0
-31 -126 0
-33 -128 0
-32 -126 0
-32 -128 0
-36 -151 0
-37 -153 0
-38 -152 0
-40 -153 0
-36 -154 0
-37 -155 0
-39 -154 0
-40 -155 0
-38 -155 0
-40 -154 0
-40 -151 0
-39 -151 0
-36 -155 0
-39 -155 0
-38 -154 0
-37 -154 0
-40 -152 0
-39 -153 0
-37 -152 0
-36 -152 0
-37 -151 0
-39 -152 0
-42 -87 0
-41 -86 0
-43 -89 0
-41 -90 0
-45 -86 0
-42 -88 0
-41 -88 0
-45 -88 0
-44 -89 0
-44 -86 0
-45 -89 0
-43 -87 0
-44 -90 0
-43 -86 0
-43 -88 0
-45 -90 0
-43 -90 0
-41 -87 0
-44 -87 0
-44 -88 0
-42 -90 0
-41 -89 0
-43 -102 0
-44 -102 0
-42 -105 0
-41 -103 0
-42 -102 0
-43 -105 0
-41 -104 0
-42 -101 0
-44 -105 0
-45 -101 0
-44 -103 0
-41 -102 0
-45 -103 0
-43 -104 0
-42 -103 0
-41 -105 0
-45 -102 0
-41 -101 0
-43 -101 0
-45 -105 0
-43 -103 0
-42 -104 0
-43 -160 0
-41 -159 0
-41 -156 0
-43 -158 0
-42 -157 0
-43 -157 0
-42 -156 0
-45 -157 0
-44 -157 0
-41 -158 0
-41 -160 0
-44 -158 0
-42 -158 0
-44 -156 0
-45 -160 0
-43 -159 0
-42 -159 0
-45 -156 0
-44 -159 0
-44 -160 0
-43 -156 0
-41 -157 0
-50 -52 0
-46 -53 0
-48 -53 0
-49 -53 0
-46 -54 0
-49 -52 0
-49 -55 0
-50 -53 0
-47 -53 0
-47 -51 0
-48 -54 0
-46 -55 0
-47 -54 0
-48 -51 0
-47 -55 0
-50 -54 0
-49 -54 0
-50 -51 0
-46 -51 0
-46 -52 0
-49 -51 0
-50 -55 0
-47 -60 0
-49 -57 0
-49 -59 0
-46 -56 0
-49 -60 0
-46 -57 0
-48 -60 0
-47 -58 0
-50 -57 0
-46 -60 0
-50 -56 0
-48 -56 0
-46 -59 0
-48 -58 0
-48 -59 0
-50 -60 0
-49 -58 0
-48 -57 0
-47 -59 0
-47 -57 0
-50 -59 0
-46 -58 0
-50 -150 0
-46 -147 0
-47 -149 0
-50 -146 0
-48 -148 0
-49 -147 0
-46 -146 0
-46 -148 0
-47 -147 0
-49 -150 0
-48 -149 0
-50 -147 0
-47 -148 0
-50 -149 0
-47 -150 0
-47 -146 0
-49 -148 0
-46 -150 0
-48 -146 0
-48 -150 0
-49 -149 0
-46 -149 0
-51 -141 0
-55 -145 0
-52 -144 0
-53 -144 0
-52 -145 0
-51 -143 0
-52 -142 0
-53 -142 0
-52 -143 0
-51 -142 0
-54 -143 0
-53 -143 0
-55 -141 0
-51 -144 0
-53 -145 0
-55 -142 0
-52 -141 0
-54 -141 0
-55 -143 0
-54 -145 0
-53 -141 0
-51 -145 0
-59 -93 0
-57 -91 0
-60 -93 0
-60 -95 0
-58 -95 0
-57 -95 0
-59 -94 0
-57 -93 0
-58 -93 0
-57 -92 0
-58 -91 0
-57 -94 0
-59 -92 0
-58 -94 0
-60 -91 0
-56 -93 0
-59 -95 0
-56 -91 0
-59 -91 0
-58 -92 0
-56 -94 0
-56 -95 0
-56 -102 0
-56 -105 0
-57 -101 0
-59 -103 0
-56 -103 0
-59 -105 0
-58 -104 0
-58 -103 0
-59 -102 0
-60 -102 0
-56 -104 0
-57 -102 0
-58 -101 0
-57 -105 0
-60 -105 0
-60 -103 0
-58 -105 0
-59 -104 0
-57 -104 0
-60 -104 0
-56 -101 0
-58 -102 0
-61 -106 0
-65 -109 0
-62 -106 0
-64 -107 0
-65 -106 0
-63 -110 0
-63 -107 0
-61 -108 0
-64 -108 0
-65 -110 0
-61 -110 0
-61 -107 0
-62 -109 0
-62 -108 0
-64 -109 0
-62 -110 0
-63 -109 0
-61 -109 0
-65 -108 0
-65 -107 0
-62 -107 0
-63 -108 0
-61 -159 0
-61 -156 0
-65 -160 0
-62 -159 0
-63 -156 0
-63 -157 0
-65 -159 0
-65 -156 0
-62 -156 0
-61 -158 0
-63 -159 0
-64 -157 0
-63 -160 0
-64 -160 0
-62 -160 0
-64 -159 0
-61 -160 0
-64 -158 0
-62 -158 0
-62 -157 0
-65 -158 0
-63 -158 0
-66 -110 0
-69 -110 0
-67 -107 0
-67 -106 0
-70 -109 0
-66 -107 0
-70 -110 0
-68 -108 0
-66 -106 0
-70 -107 0
-69 -109 0
-68 -109 0
-70 -106 0
-66 -109 0
-69 -106 0
-68 -107 0
-70 -108 0
-68 -106 0
-67 -108 0
-69 -107 0
-68 -110 0
-67 -109 0
-74 -83 0
-73 -84 0
-74 -84 0
-73 -82 0
-75 -85 0
-75 -83 0
-71 -82 0
-71 -83 0
-71 -85 0
-75 -82 0
-72 -85 0
-72 -84 0
-73 -81 0
-73 -83 0
-71 -84 0
-75 -81 0
-71 -81 0
-75 -84 0
-72 -82 0
-74 -82 0
-74 -85 0
-72 -81 0
-71 -106 0
-72 -109 0
-74 -108 0
-72 -106 0
-74 -110 0
-73 -107 0
-72 -110 0
-72 -108 0
-73 -108 0
-75 -108 0
-72 -107 0
-75 -109 0
-75 -107 0
-73 -106 0
-71 -110 0
-71 -108 0
-73 -110 0
-75 -106 0
-73 -109 0
-74 -106 0
-75 -110 0
-71 -109 0
-75 -125 0
-74 -125 0
-72 -124 0
-71 -123 0
-73 -125 0
-73 -122 0
-75 -121 0
-73 -124 0
-71 -122 0
-75 -122 0
-75 -123 0
-72 -123 0
-71 -121 0
-74 -121 0
-73 -121 0
-72 -122 0
-72 -125 0
-71 -124 0
-74 -122 0
-71 -125 0
-74 -123 0
-72 -121 0
-74 -139 0
-73 -140 0
-74 -140 0
-71 -140 0
-72 -140 0
-71 -139 0
-72 -139 0
-74 -137 0
-74 -136 0
-75 -138 0
-75 -140 0
-74 -138 0
-72 -138 0
-73 -139 0
-71 -138 0
-72 -136 0
-73 -138 0
-75 -139 0
-73 -137 0
-73 -136 0
-72 -137 0
-75 -136 0
-80 -93 0
-80 -91 0
-77 -92 0
-77 -95 0
-78 -92 0
-76 -95 0
-78 -95 0
-76 -92 0
-79 -94 0
-78 -91 0
-80 -95 0
-79 -95 0
-77 -91 0
-76 -94 0
-79 -91 0
-76 -91 0
-80 -94 0
-78 -93 0
-78 -94 0
-77 -94 0
-76 -93 0
-80 -92 0
-85 -118 0
-85 -119 0
-82 -118 0
-83 -119 0
-84 -120 0
-85 -120 0
-85 -116 0
-85 -117 0
-82 -119 0
-82 -120 0
-83 -120 0
-83 -116 0
-84 -117 0
-81 -119 0
-81 -118 0
-83 -118 0
-84 -119 0
-84 -118 0
-84 -116 0
-81 -117 0
-81 -120 0
-81 -116 0
-82 -129 0
-81 -130 0
-84 -130 0
-83 -130 0
-82 -128 0
-85 -127 0
-84 -128 0
-83 -129 0
-82 -126 0
-83 -127 0
-81 -127 0
-84 -127 0
-84 -129 0
-85 -129 0
-85 -126 0
-85 -128 0
-81 -126 0
-83 -126 0
-82 -130 0
-85 -130 0
-81 -128 0
-84 -126 0
-82 -134 0
-85 -134 0
-81 -131 0
-83 -135 0
-84 -135 0
-81 -132 0
-84 -134 0
-82 -133 0
-83 -133 0
-81 -135 0
-81 -134 0
-84 -131 0
-83 -131 0
-85 -133 0
-83 -132 0
-84 -133 0
-85 -131 0
-81 -133 0
-82 -131 0
-85 -132 0
-83 -134 0
-85 -135 0
-90 -132 0
-86 -132 0
-89 -132 0
-87 -131 0
-90 -134 0
-87 -135 0
-88 -133 0
-89 -134 0
-89 -131 0
-88 -134 0
-86 -134 0
-88 -132 0
-86 -135 0
-87 -133 0
-87 -132 0
-88 -131 0
-87 -134 0
-86 -133 0
-89 -133 0
-86 -131 0
-90 -133 0
-88 -135 0
-87 -170 0
-89 -167 0
-88 -170 0
-88 -167 0
-89 -170 0
-89 -166 0
-90 -170 0
-87 -167 0
-88 -166 0
-89 -169 0
-90 -168 0
-86 -170 0
-90 -167 0
-87 -166 0
-87 -169 0
-86 -168 0
-90 -166 0
-86 -167 0
-89 -168 0
-90 -169 0
-86 -169 0
-88 -168 0
-92 -100 0
-95 -97 0
-93 -97 0
-92 -96 0
-94 -99 0
-94 -98 0
-95 -100 0
-93 -99 0
-92 -98 0
-93 -98 0
-91 -97 0
-92 -99 0
-91 -96 0
-95 -96 0
-93 -100 0
-94 -96 0
-94 -97 0
-91 -98 0
-95 -98 0
-94 -100 0
-95 -99 0
-91 -100 0
-93 -132 0
-95 -131 0
-95 -135 0
-95 -133 0
-91 -134 0
-94 -131 0
-95 -132 0
-92 -135 0
-93 -135 0
-92 -132 0
-92 -133 0
-91 -131 0
-91 -133 0
-92 -134 0
-93 -133 0
-91 -135 0
-93 -131 0
-94 -132 0
-93 -134 0
-91 -132 0
-95 -134 0
-94 -135 0
-93 -141 0
-92 -143 0
-93 -142 0
-93 -144 0
-94 -144 0
-91 -141 0
-95 -144 0
-93 -143 0
-95 -143 0
-91 -145 0
-91 -143 0
-94 -141 0
-94 -145 0
-92 -141 0
-95 -145 0
-95 -141 0
-92 -142 0
-91 -142 0
-92 -144 0
-93 -145 0
-92 -145 0
-94 -142 0
-94 -164 0
-91 -164 0
-92 -165 0
-93 -163 0
-91 -162 0
-91 -165 0
-92 -163 0
-93 -162 0
-91 -161 0
-92 -162 0
-93 -161 0
-95 -164 0
-94 -162 0
-93 -165 0
-92 -161 0
-94 -161 0
-91 -163 0
-95 -163 0
-95 -162 0
-92 -164 0
-94 -163 0
-95 -161 0
-98 -124 0
-98 -122 0
-97 -124 0
-99 -121 0
-96 -123 0
-97 -123 0
-100 -123 0
-99 -122 0
-100 -122 0
-99 -125 0
-99 -123 0
-100 -124 0
-97 -121 0
-99 -124 0
-98 -121 0
-100 -121 0
-97 -122 0
-98 -125 0
-100 -125 0
-96 -125 0
-96 -121 0
-96 -124 0
-96 -156 0
-98 -158 0
-99 -160 0
-97 -158 0
-99 -157 0
-98 -157 0
-99 -156 0
-97 -159 0
-99 -159 0
-100 -159 0
-96 -157 0
-98 -159 0
-97 -157 0
-96 -160 0
-100 -160 0
-96 -159 0
-97 -156 0
-98 -160 0
-100 -157 0
-100 -156 0
-100 -158 0
-98 -156 0
-101 -128 0
-103 -126 0
-102 -127 0
-103 -127 0
-102 -128 0
-102 -130 0
-105 -130 0
-105 -128 0
-105 -127 0
-104 -129 0
-103 -130 0
-104 -128 0
-105 -126 0
-105 -129 0
-101 -127 0
-101 -126 0
-104 -130 0
-102 -126 0
-103 -129 0
-101 -129 0
-103 -128 0
-102 -129 0
-108 -117 0
-108 -118 0
-107 -117 0
-106 -120 0
-107 -118 0
-106 -116 0
-109 -120 0
-107 -120 0
-110 -120 0
-109 -116 0
-108 -120 0
-109 -118 0
-108 -119 0
-109 -119 0
-106 -117 0
-110 -118 0
-107 -116 0
-108 -116 0
-110 -119 0
-106 -118 0
-110 -117 0
-107 -119 0
-114 -165 0
-113 -163 0
-111 -164 0
-112 -163 0
-111 -162 0
-111 -163 0
-113 -161 0
-115 -163 0
-115 -164 0
-112 -162 0
-112 -164 0
-114 -163 0
-113 -162 0
-113 -164 0
-114 -161 0
-112 -165 0
-114 -162 0
-112 -161 0
-115 -162 0
-111 -161 0
-115 -161 0
-115 -165 0
-118 -150 0
-120 -149 0
-119 -149 0
-118 -149 0
-117 -146 0
-117 -150 0
-119 -147 0
-120 -150 0
-118 -148 0
-119 -146 0
-117 -148 0
-120 -146 0
-120 -148 0
-116 -146 0
-120 -147 0
-119 -148 0
-117 -147 0
-116 -149 0
-119 -150 0
-116 -147 0
-118 -147 0
-117 -149 0
-120 -174 0
-119 -173 0
-116 -171 0
-117 -172 0
-118 -171 0
-116 -174 0
-116 -173 0
-119 -172 0
-119 -171 0
-120 -172 0
-119 -174 0
-116 -172 0
-118 -173 0
-118 -172 0
-120 -171 0
-116 -175 0
-118 -175 0
-118 -174 0
-117 -175 0
-117 -173 0
-120 -173 0
-120 -175 0
-126 -158 0
-126 -159 0
-129 -159 0
-127 -160 0
-130 -157 0
-130 -160 0
-130 -156 0
-128 -160 0
-128 -157 0
-126 -156 0
-127 -156 0
-126 -160 0
-127 -157 0
-128 -156 0
-127 -159 0
-129 -160 0
-128 -158 0
-129 -156 0
-130 -158 0
-127 -158 0
-126 -157 0
-129 -158 0
-155 -159 0
-154 -156 0
-155 -158 0
-151 -156 0
-153 -156 0
-153 -157 0
-154 -157 0
-153 -158 0
-153 -159 0
-151 -159 0
-151 -158 0
-155 -160 0
-155 -157 0
-152 -158 0
-152 -159 0
-151 -160 0
-151 -157 0
-152 -156 0
-152 -157 0
-154 -159 0
-152 -160 0
-154 -160 0
-151 -166 0
-155 -169 0
-155 -167 0
-155 -170 0
-153 -170 0
-151 -169 0
-154 -170 0
-153 -166 0
-153 -168 0
-151 -167 0
-154 -169 0
-152 -167 0
-154 -166 0
-152 -169 0
-154 -167 0
-152 -166 0
-152 -168 0
-154 -168 0
-153 -167 0
-155 -168 0
-151 -170 0
-151 -168 0
